15 20

19 2 18 7 10 15 5 2 13 14 6 12
8 4 19 12 11 10 12 2 10 15
8 8 18 9 11 15 19 4 12 6 17 5
10 5 14 6 9 11 1 12
16 7 17 10 20 7 3 10
1 11 2 7 16 2 8 5 11 12
12 12 8 9 1 9 11 6 18 11
5 4 1 6 2 10 13 9 15 8
16 10 13 5 8 15 14 8 3 13 7 15
6 4 16 5 8 11 2 14
13 9 4 7 10 12 18 6
17 12 16 11 1 13 12 3 4 12 19 7
13 2 18 12 20 2 11 15 17 4
16 3 10 2 1 14 18 8
4 2 19 8 15 4 5 3 11 9
